param fuelCost:  1  2  3  4  5  6  7  8  9  10  11 :=
1  100  9  5  4  10  7  10  8  8  7  5
2  9  100  8  8  6  4  3  9  8  4  3
3  5  8  100  5  7  6  5  4  3  8  10
4  4  8  5  100  5  3  3  8  8  8  9
5  10  6  7  5  100  10  10  9  6  8  4
6  7  4  6  3  10  100  8  9  3  3  3
7  10  3  5  3  10  8  100  5  3  10  7
8  8  9  4  8  9  9  5  100  10  6  5
9  8  8  3  8  6  3  3  10  100  2  2
10  7  4  8  8  8  3  10  6  2  100  2
11  5  3  10  9  4  3  7  5  2  2  100
;
param timeCost:  1  2  3  4  5  6  7  8  9  10  11 :=
1  100  8  100  100  100  100  100  100  100  100  8
2  8  100  3  100  100  100  100  100  100  100  100
3  100  3  100  6  100  100  4  100  100  100  100
4  100  100  6  100  5  6  100  100  100  100  100
5  100  100  100  5  100  4  100  100  100  100  100
6  100  100  100  6  4  100  9  100  100  100  8
7  100  100  4  100  100  9  100  9  100  100  100
8  100  100  100  100  100  100  9  100  3  100  100
9  100  100  100  100  100  100  100  3  100  10  100
10  100  100  100  100  100  100  100  100  10  100  8
11  8  100  100  100  100  8  100  100  100  8  100
;
param mst:  1  2  3  4  5  6  7  8  9  10  11 :=
1  .  1  0  0  0  0  0  0  0  0  1
2  .  .  1  0  0  0  0  0  0  0  0
3  .  .  .  1  0  0  1  0  0  0  0
4  .  .  .  .  1  0  0  0  0  0  0
5  .  .  .  .  .  1  0  0  0  0  0
6  .  .  .  .  .  .  0  0  0  0  0
7  .  .  .  .  .  .  .  1  0  0  0
8  .  .  .  .  .  .  .  .  1  0  0
9  .  .  .  .  .  .  .  .  .  0  0
10  .  .  .  .  .  .  .  .  .  .  1
11  .  .  .  .  .  .  .  .  .  .  .
;
param mstHalf:  1  2  3  4  5  6  7  8  9  10  11 :=
1  .  0  0  0  0  0  0  0  0  0  0
2  .  .  1  0  0  0  0  0  0  0  0
3  .  .  .  0  0  0  1  0  0  0  0
4  .  .  .  .  1  0  0  0  0  0  0
5  .  .  .  .  .  1  0  0  0  0  0
6  .  .  .  .  .  .  0  0  0  0  0
7  .  .  .  .  .  .  .  0  0  0  0
8  .  .  .  .  .  .  .  .  1  0  0
9  .  .  .  .  .  .  .  .  .  0  0
10  .  .  .  .  .  .  .  .  .  .  0
11  .  .  .  .  .  .  .  .  .  .  .
;
param mstEdges:  1  2 :=
1  2  3
2  8  9
3  3  7
4  5  6
5  4  5
6  3  4
7  1  2
8  1  11
9  10  11
10  7  8
;
